c WARNING: for repeatability, setting FPU to use double precision
d VARIABLES            60144        
d CONSTRAINTS          257571       
c ============================[ Problem Statistics ]=============================
c |                                                                             |
c |  Number of variables:         60144                                         |
c |  Number of clauses:          257571                                         |
c |  Parse time:                   0.04 s                                       |
c |                                                                             |
c ============================[ Search Statistics ]==============================
c | Conflicts |          ORIGINAL         |          LEARNT          | Progress |
c |           |    Vars  Clauses Literals |    Limit  Clauses Lit/Cl |          |
c ===============================================================================
c |       100 |   48358   224083   546026 |    82163      100     93 | 19.596 % |
c |       250 |   48358   224083   546026 |    90380      250     90 | 19.596 % |
c |       475 |   48358   224083   546026 |    99418      475     81 | 19.596 % |
c |       812 |   48358   224083   546026 |   109359      812     69 | 19.596 % |
c |      1318 |   48358   224083   546026 |   120295     1318     66 | 19.596 % |
c |      2077 |   48358   224083   546026 |   132325     2077     64 | 19.596 % |
c |      3216 |   48358   224083   546026 |   145558     3216    101 | 19.596 % |
c |      4924 |   48358   224083   546026 |   160113     4924    104 | 19.596 % |
c |      7486 |   48358   224083   546026 |   176125     7486    130 | 19.596 % |
c |     11330 |   48358   224083   546026 |   193737    11330    145 | 19.596 % |
c |     17096 |   48358   224083   546026 |   213111    17096    157 | 19.596 % |
c |     25745 |   48358   224083   546026 |   234422    25745    180 | 19.596 % |
c |     38719 |   48358   224083   546026 |   257865    38719    157 | 19.596 % |
c |     58180 |   48358   224083   546026 |   283651    58180    145 | 19.596 % |
c |     87372 |   48358   224083   546026 |   312016    87372    140 | 19.596 % |
c |    131161 |   48358   224083   546026 |   343218   131161    139 | 19.596 % |
c |    196845 |   48358   224083   546026 |   377540   196845    127 | 19.596 % |
c |    295371 |   48358   224083   546026 |   415294   295371    122 | 19.596 % |
c |    443160 |   48358   224083   546026 |   456823    35827     74 | 19.596 % |
c |    664843 |   48358   224083   546026 |   502506   257510     93 | 19.596 % |
c |    997368 |   48358   224083   546026 |   552756   110199     91 | 19.596 % |
c |   1496156 |   48358   224083   546026 |   608032    74876     75 | 19.596 % |
c |   2244338 |   48246   223523   544682 |   668835   200099     89 | 19.783 % |
c ===============================================================================
c restarts              : 4095
c conflicts             : 2258744        (1262 /sec)
c decisions             : 4166877        (0.00 % random) (2329 /sec)
c propagations          : 2177673769     (1216969 /sec)
c conflict literals     : 225958885      (35.77 % deleted)
d RESTARTS             4095
d FAILURES             2258744      
d NODES                4166877      
d BACKTRACKS           4166877      
d PROPAGATIONS         2177673769   
d NOGOODSIZE           100.04 
d MEMORY               510.00 
d TIME                 1789.42 

s UNKNOWN
